problems/csplib-prob030/BalancedAcademicCurriculumProblem-models/compact/O2/minion/model-bacp-1-solution000001.eprime-solution
language ESSENCE' 1.0

letting curr_Function1D be
        [10, 10, 9, 9, 2, 9, 1, 2, 9, 1, 8, 8, 2, 8, 1, 1, 7, 1, 7, 1, 6, 6, 6, 1, 5, 2, 5, 5, 5, 5, 4, 4, 4, 4, 4, 3,
         3, 2, 2, 3, 3, 3, 3, 2, 2, 2, 2, 1, 1, 1;
             int(1..50)]
