problems/csplib-prob030/BalancedAcademicCurriculumProblem-models/noch/O0/minion/model-bacp-1-solution000001.solution
language Essence 1.3

letting curr be
        function(1 --> 10, 2 --> 10, 3 --> 9, 4 --> 9, 5 --> 2, 6 --> 9, 7 --> 1, 8 --> 2, 9 --> 9, 10 --> 1, 11 --> 8,
                 12 --> 8, 13 --> 2, 14 --> 8, 15 --> 1, 16 --> 1, 17 --> 7, 18 --> 1, 19 --> 7, 20 --> 1, 21 --> 6,
                 22 --> 6, 23 --> 6, 24 --> 1, 25 --> 5, 26 --> 2, 27 --> 5, 28 --> 5, 29 --> 5, 30 --> 5, 31 --> 4,
                 32 --> 4, 33 --> 4, 34 --> 4, 35 --> 4, 36 --> 3, 37 --> 3, 38 --> 2, 39 --> 2, 40 --> 3, 41 --> 3,
                 42 --> 3, 43 --> 3, 44 --> 2, 45 --> 2, 46 --> 2, 47 --> 2, 48 --> 1, 49 --> 1, 50 --> 1)
